15 = ndim
12 = nblocks
7 6 1 1 1 1 1 1 1 1 1 1 = blockstruct
1.0, 0.0, 0.0, 0.0, 0.0, 0.0, 0.0, 0.0, 0.0, 0.0, 0.0, 0.0, 0.0, 0.0, 0.0 = objcoeffs
0 1 1 1 27.241731586805184
0 1 1 2 -1.445122062952254
0 1 1 3 -0.231928094217847
0 1 1 4 -3.4438919749489276
0 1 1 5 4.4206524334044595
0 1 1 6 2.371729652511548
0 1 1 7 0.1534597929796011
0 1 2 2 -1.0
0 1 3 3 -1.0
0 1 4 4 -1.0
0 1 5 5 -1.0
0 1 6 6 -1.0
0 1 7 7 -1.0
0 2 1 1 1e-06
0 2 2 2 1e-06
0 2 3 3 1e-06
0 2 4 4 1e-06
0 2 5 5 1e-06
0 2 6 6 1e-06
0 3 1 1 1e-06
0 4 1 1 1e-06
0 5 1 1 1e-06
0 6 1 1 1e-06
0 7 1 1 1e-06
0 8 1 1 1e-06
0 9 1 1 1e-06
0 10 1 1 1e-06
0 11 1 1 1e-06
0 12 1 1 -0.249999
1 1 1 1 1.0
2 1 1 2 -157.9983880767218
2 2 3 3 1.0
3 1 1 2 -14.173622125789308
3 1 1 3 -347.76321049332944
3 2 2 6 1.0
3 2 3 5 -1.0
3 6 1 1 1.0
3 7 1 1 -1.0
4 1 1 2 165.6131464800665
4 1 1 3 -51.7992172698428
4 1 1 4 376.6491325767503
4 2 1 6 -1.0
4 2 3 4 1.0
4 8 1 1 1.0
4 9 1 1 -1.0
5 1 1 2 -0.36868310929701087
5 1 1 3 -1.0807618109414205
5 1 1 4 -0.5713425889601068
5 1 1 5 58.67083085342702
5 4 1 1 1.0
6 1 1 2 -0.09980268835301909
6 1 1 3 -8.389594320595318
6 1 1 4 0.5376717468690906
6 1 1 5 45.35663711913748
6 1 1 6 30.29666163907868
6 5 1 1 1.0
7 1 1 2 -0.20618825018683862
7 1 1 3 48.732232666100856
7 1 1 4 -8.506150132473172
7 1 1 5 0.028979629538094187
7 1 1 6 1.0253147421847728
7 1 1 7 24.444158139419425
8 2 1 1 1.0
9 2 1 2 1.0
10 2 1 3 1.0
11 2 2 2 1.0
12 2 2 3 1.0
13 2 1 5 1.0
13 2 2 4 -1.0
13 10 1 1 1.0
13 11 1 1 -1.0
14 2 4 4 1.0
14 2 5 5 1.0
14 2 6 6 1.0
14 6 1 1 0.005
14 7 1 1 0.005
14 8 1 1 0.2
14 9 1 1 -0.1
14 10 1 1 0.01
14 11 1 1 0.01
14 12 1 1 -1.0
15 2 3 3 -1.0
15 3 1 1 1.0
